p cnf 15 21
15 -14 -9 0
15 13 5 0
-15 11 9 0
-15 11 7 0
-14 -13 10 0
-14 -13 -2 0
-13 12 -5 0
13 11 10 0
-13 -11 8 0
-13 -11 -1 0
13 10 5 0
13 -7 4 0
-12 -11 -2 0
-12 -10 6 0
12 -6 -3 0
-11 7 -6 0
10 3 1 0
-9 7 6 0
-9 -7 -2 0
8 -7 -6 0
-4 3 1 0
